Assets/LKHProbs~/skull.82.tsp
NAME : GeneratedProblem
COMMENT : SVGCrosshatch
TYPE : TSP
DIMENSION : 46
EDGE_WEIGHT_TYPE : EUC_2D
NODE_COORD_SECTION
1 2500 6200
2 2500 6300
3 2500 6400
4 2500 6500
5 2500 6600
6 2500 6700
7 2500 6800
8 2500 6900
9 2500 7000
10 2500 7100
11 2600 6200
12 2600 6300
13 2600 6400
14 2600 6500
15 2600 6600
16 2600 6700
17 2600 6800
18 2600 6900
19 2600 7000
20 2600 7100
21 2600 7200
22 2600 7300
23 2700 6100
24 2700 6200
25 2700 6300
26 2700 6400
27 2700 6500
28 2700 6600
29 2700 6700
30 2700 6800
31 2700 6900
32 2700 7000
33 2700 7100
34 2700 7200
35 2700 7300
36 2800 6100
37 2800 6200
38 2800 6300
39 2800 6400
40 2800 6500
41 2800 6600
42 2800 6700
43 2800 6800
44 2800 6900
45 2800 7000
46 2800 7100
EOF
