Assets/LKHProbs~/skull.82.out.txt
NAME : GeneratedProblem.4600.tour
COMMENT : Length = 4600
COMMENT : Found by LKH [Keld Helsgaun] Sun Nov 25 13:18:03 2018
TYPE : TOUR
DIMENSION : 46
TOUR_SECTION
1
2
3
4
5
15
28
29
16
6
7
8
9
10
20
21
22
35
34
33
46
45
32
19
18
17
30
31
44
43
42
41
40
39
26
27
14
13
12
25
38
37
36
23
24
11
-1
EOF
